NAME          MIP_VARIED_EX04
ROWS
 N  OBJ
 E  C1
 L  C2
COLUMNS
    X1      OBJ       4
    X1      C1             1
    X1      C2             1
    X2      OBJ       5
    X2      C1             3
    X2      C2             3
    X3      OBJ       6
    X3      C1             1
    X3      C2             1
RHS
    RHS1     C1      5
    RHS1     C2      4
BOUNDS
 LI BND1     X1      0
 UI BND1     X1      10
 LI BND1     X2      0
 UI BND1     X2      10
 LI BND1     X3      0
 UI BND1     X3      10
MARK0000 'MARKER'                 'INTORG'
    X2      'MARKER'
    X3      'MARKER'
    X1      'MARKER'
MARK0001 'MARKER'                 'INTEND'
ENDATA